(set-logic QF_S)
(declare-fun var0 () String)
(declare-fun var1 () Int)
(declare-fun var2 () Bool)
(declare-fun var3 () String)
(declare-fun var4 () Int)
(declare-fun var5 () Bool)
(declare-fun var6 () String)
(declare-fun var7 () Int)
(declare-fun var8 () Bool)
(assert (<= (str.indexof var3 var3 7) (str.indexof (str.replace var0 var6 var0) (str.replace var3 var3 var6) (str.indexof var3 var3 var1))))
(assert (str.in.re (str.at var6 var1) (re.* re.allchar)))
(assert (>= (str.len var3) (str.indexof "X.i7E#]A!n" var0 var1)))
(assert (> (str.indexof var0 var6 var1) (str.indexof var3 var0 var4)))
(check-sat)